cases/pglib-opf/pglib_opf_case14_ieee.m
[info | PowerModels]: removing 3 cost terms from generator 4: Float64[]
[info | PowerModels]: removing 1 cost terms from generator 1: [792.0951, 0.0]
[info | PowerModels]: removing 3 cost terms from generator 5: Float64[]
[info | PowerModels]: removing 1 cost terms from generator 2: [2326.9494, 0.0]
[info | PowerModels]: removing 3 cost terms from generator 3: Float64[]

******************************************************************************
This program contains Ipopt, a library for large-scale nonlinear optimization.
 Ipopt is released as open source code under the Eclipse Public License (EPL).
         For more information visit http://projects.coin-or.org/Ipopt
******************************************************************************

This is Ipopt version 3.13.2, running with linear solver mumps.
NOTE: Other linear solvers might be more efficient (see Ipopt documentation).

Number of nonzeros in equality constraint Jacobian...:      489
Number of nonzeros in inequality constraint Jacobian.:      160
Number of nonzeros in Lagrangian Hessian.............:      881

Total number of variables............................:      115
                     variables with only lower bounds:        0
                variables with lower and upper bounds:      101
                     variables with only upper bounds:        0
Total number of equality constraints.................:      109
Total number of inequality constraints...............:       80
        inequality constraints with only lower bounds:       20
   inequality constraints with lower and upper bounds:        0
        inequality constraints with only upper bounds:       60

iter    objective    inf_pr   inf_du lg(mu)  ||d||  lg(rg) alpha_du alpha_pr  ls
   0  2.1649922e+01 9.42e-01 1.88e+01  -1.0 0.00e+00    -  0.00e+00 0.00e+00   0
   1  2.4464214e+03 2.50e-01 1.33e+02  -1.0 1.81e+00    -  5.61e-03 7.34e-01H  1
   2  2.3967630e+03 4.55e-02 8.94e+01  -1.0 1.75e+00    -  1.74e-02 9.97e-01f  1
   3  2.1633361e+03 4.42e-02 8.75e+01  -1.0 2.61e+01    -  2.18e-01 1.95e-02f  1
   4  2.1823081e+03 8.47e-04 1.41e+01  -1.0 8.82e-01    -  7.57e-01 1.00e+00h  1
   5  2.1890842e+03 3.76e-03 7.25e-01  -1.0 6.67e-02    -  1.00e+00 1.00e+00f  1
   6  2.1849633e+03 4.30e-04 5.24e-01  -1.7 1.38e-02    -  9.64e-01 1.00e+00h  1
   7  2.1794160e+03 2.31e-03 2.33e-02  -1.7 4.13e-02    -  1.00e+00 1.00e+00f  1
   8  2.1786673e+03 6.12e-04 2.89e-01  -3.8 7.90e-03    -  8.46e-01 7.40e-01h  1
   9  2.1780966e+03 1.45e-04 3.05e-01  -3.8 4.14e-02    -  4.43e-01 9.69e-01h  1
iter    objective    inf_pr   inf_du lg(mu)  ||d||  lg(rg) alpha_du alpha_pr  ls
  10  2.1780936e+03 7.00e-06 6.66e-04  -3.8 1.35e-02    -  1.00e+00 1.00e+00h  1
  11  2.1780803e+03 1.65e-06 9.68e-04  -5.7 4.57e-03    -  9.56e-01 9.45e-01h  1
  12  2.1780805e+03 1.82e-07 1.04e-05  -5.7 1.67e-03    -  1.00e+00 1.00e+00h  1
  13  2.1780804e+03 2.19e-09 2.91e-06  -8.6 1.68e-04    -  1.00e+00 9.99e-01h  1
  14  2.1780804e+03 1.10e-09 1.44e-05  -8.6 2.01e-06    -  1.00e+00 5.00e-01f  2
  15  2.1780804e+03 6.44e-14 3.82e-12  -8.6 1.01e-06    -  1.00e+00 1.00e+00h  1

Number of Iterations....: 15

                                   (scaled)                 (unscaled)
Objective...............:   9.3602396804143766e+01    2.1780804108196426e+03
Dual infeasibility......:   3.8156144910317380e-12    8.8787418505376083e-11
Constraint violation....:   6.4448446579490337e-14    6.4448446579490337e-14
Complementarity.........:   2.5059040485519213e-09    5.8311119222354645e-08
Overall NLP error.......:   2.5059040485519213e-09    5.8311119222354645e-08


Number of objective function evaluations             = 18
Number of objective gradient evaluations             = 16
Number of equality constraint evaluations            = 18
Number of inequality constraint evaluations          = 18
Number of equality constraint Jacobian evaluations   = 16
Number of inequality constraint Jacobian evaluations = 16
Number of Lagrangian Hessian evaluations             = 15
Total CPU secs in IPOPT (w/o function evaluations)   =      2.160
Total CPU secs in NLP function evaluations           =      1.496

EXIT: Optimal Solution Found.
Time to Solution........:4.393975019454956
Final cost..............:
